NAME : random871030
COMMENT: random generated with id 871030
TYPE : TSP
DIMENSION : 10
EDGE_WEIGHT_TYPE : EUC_2D
NODE_COORD_SECTION
1 16.501180 8.059711
2 5.440328 2.108779
3 7.573183 10.194877
4 1.576835 8.955902
5 8.221017 4.758410
6 1.356125 12.794919
7 3.507711 10.339711
8 14.084862 5.446757
9 18.879325 4.612976
10 4.526969 5.845346
EOF
